outputs/case_176.model.txt
other_designated_matters_complied = True
audit_procedures_established = True
risk_assessment_report_updated = True
control_procedures_established = True
dedicated_personnel_assigned = True
training_held = True
internal_control_executed = True
internal_control_established = True
compliance_ok = True
penalty = False